This is Ipopt version 3.13.4, running with linear solver ma27.

Number of nonzeros in equality constraint Jacobian...:   430009
Number of nonzeros in inequality constraint Jacobian.:        0
Number of nonzeros in Lagrangian Hessian.............:   200006

Total number of variables............................:   130009
                     variables with only lower bounds:        0
                variables with lower and upper bounds:        0
                     variables with only upper bounds:        0
Total number of equality constraints.................:    90009
Total number of inequality constraints...............:        0
        inequality constraints with only lower bounds:        0
   inequality constraints with lower and upper bounds:        0
        inequality constraints with only upper bounds:        0

iter    objective    inf_pr   inf_du lg(mu)  ||d||  lg(rg) alpha_du alpha_pr  ls
   0  1.9367707e+04 9.80e-02 1.00e+02  -1.0 0.00e+00    -  0.00e+00 0.00e+00   0
   1  6.0274096e+04 4.12e-09 7.84e+03  -1.0 1.03e+01    -  1.00e+00 1.00e+00h  1
   2  6.0272863e+04 3.17e-13 9.84e-01  -1.0 9.84e-05   4.0 1.00e+00 1.00e+00f  1
   3  4.7774697e+04 1.39e-04 1.48e-02  -1.7 2.00e+00    -  1.00e+00 1.00e+00f  1
   4  4.7775573e+04 1.73e-07 1.99e-05  -3.8 6.73e-02    -  1.00e+00 1.00e+00h  1
   5  4.7775574e+04 2.84e-13 3.02e-11  -5.7 2.97e-05    -  1.00e+00 1.00e+00h  1

Number of Iterations....: 5

                                   (scaled)                 (unscaled)
Objective...............:   2.3885398402421182e+04    4.7775573884522848e+04
Dual infeasibility......:   3.0201435102794605e-11    6.0408910492609764e-11
Constraint violation....:   2.8402150423212369e-13    2.8402150423212369e-13
Complementarity.........:   0.0000000000000000e+00    0.0000000000000000e+00
Overall NLP error.......:   3.0201435102794605e-11    6.0408910492609764e-11


Number of objective function evaluations             = 6
Number of objective gradient evaluations             = 6
Number of equality constraint evaluations            = 6
Number of inequality constraint evaluations          = 0
Number of equality constraint Jacobian evaluations   = 6
Number of inequality constraint Jacobian evaluations = 0
Number of Lagrangian Hessian evaluations             = 5
Total CPU secs in IPOPT (w/o function evaluations)   =      0.630
Total CPU secs in NLP function evaluations           =      0.117

EXIT: Optimal Solution Found.
